Reading model...
...model read.
creating competitive generators file...
...competitive generators recorded.
Loading data...
.. real-time data read.
Compiling instance...
...instance created.
Creating Offer Mitigation (model will solve as dispatch if TRUE)...
NOTE: storage offers will not be mitigated
...storage offer mitigation file created
Converting model to MPEC...
...converted
NOTE: initial MIP solve with only storage competitive to get feasible solution
Solving...

Welcome to IBM(R) ILOG(R) CPLEX(R) Interactive Optimizer 12.9.0.0
  with Simplex, Mixed Integer & Barrier Optimizers
5725-A06 5725-A29 5724-Y48 5724-Y49 5724-Y54 5724-Y55 5655-Y21
Copyright IBM Corp. 1988, 2019.  All Rights Reserved.

Type 'help' for a list of available commands.
Type 'help' followed by a command name for more
information on commands.

CPLEX> Logfile 'cplex.log' closed.
Logfile 'C:\Users\llavin\Desktop\test85\logs\tmpfvi_pro4.cplex.log' open.
CPLEX> New value for parallel optimization mode: -1
CPLEX> New value for mixed integer optimality gap tolerance: 0.05
CPLEX> New value for deterministic time limit in ticks: 100000
CPLEX> Problem 'C:\Users\llavin\Desktop\test85\logs\tmpcico6vhx.pyomo.lp' read.
Read time = 0.52 sec. (27.84 ticks)
CPLEX> Problem name         : C:\Users\llavin\Desktop\test85\logs\tmpcico6vhx.pyomo.lp
Objective sense      : Maximize
Variables            :  107779  [Nneg: 1,  Box: 44054,  Free: 8928,
                                 Binary: 54796]
Objective nonzeros   :   17522
Linear constraints   :  246995  [Less: 82866,  Greater: 118424,  Equal: 45705]
  Nonzeros           :  580829
  RHS nonzeros       :  134591

Variables            : Min LB: -5000.000        Max UB: 1000000.       
Objective nonzeros   : Min   : 0.1944444        Max   : 2500.000       
Linear constraints   :
  Nonzeros           : Min   : 0.1944444        Max   : 1000000.       
  RHS nonzeros       : Min   : 0.1944444        Max   : 1000000.       
CPLEX> CPXPARAM_Parallel                                -1
CPXPARAM_DetTimeLimit                            100000
CPXPARAM_MIP_Tolerances_MIPGap                   0.050000000000000003
Tried aggregator 3 times.
MIP Presolve eliminated 181785 rows and 41505 columns.
MIP Presolve added 6048 rows and 0 columns.
MIP Presolve modified 48938 coefficients.
Aggregator did 25862 substitutions.
Reduced MIP has 45396 rows, 38780 columns, and 125812 nonzeros.
Reduced MIP has 15262 binaries, 0 generals, 0 SOSs, and 0 indicators.
Presolve time = 0.58 sec. (333.54 ticks)
Probing fixed 818 vars, tightened 6886 bounds.
Probing time = 0.34 sec. (13.05 ticks)
Tried aggregator 2 times.
MIP Presolve eliminated 1828 rows and 1636 columns.
MIP Presolve modified 5511 coefficients.
Aggregator did 49 substitutions.
Reduced MIP has 43519 rows, 37095 columns, and 120374 nonzeros.
Reduced MIP has 14444 binaries, 0 generals, 0 SOSs, and 0 indicators.
Presolve time = 0.23 sec. (207.06 ticks)
Probing fixed 0 vars, tightened 193 bounds.
Probing time = 0.45 sec. (14.00 ticks)
Clique table members: 78657.
MIP emphasis: balance optimality and feasibility.
MIP search method: dynamic search.
Parallel mode: opportunistic, using up to 32 threads.
Root relaxation solution time = 0.77 sec. (1548.35 ticks)

        Nodes                                         Cuts/
   Node  Left     Objective  IInf  Best Integer    Best Bound    ItCnt     Gap

      0     0        0.0000     2                      0.0000     7577         
*     0+    0                            0.0000        0.0000             0.00%
      0     0        cutoff              0.0000        0.0000     7577    0.00%
Elapsed time = 2.97 sec. (2490.83 ticks, tree = 0.01 MB, solutions = 1)

Root node processing (before b&c):
  Real time             =    2.98 sec. (2494.62 ticks)
Parallel b&c, 32 threads:
  Real time             =    0.00 sec. (0.00 ticks)
  Sync time (average)   =    0.00 sec.
  Wait time (average)   =    0.00 sec.
                          ------------
Total (root+branch&cut) =    2.98 sec. (2494.62 ticks)

Solution pool: 1 solution saved.

MIP - Integer optimal solution:  Objective =  0.0000000000e+00
Solution time =    3.00 sec.  Iterations = 7577  Nodes = 0
Deterministic time = 2494.92 ticks  (831.64 ticks/sec)

CPLEX> Incumbent solution written to file 'C:\Users\llavin\Desktop\test85\logs\tmpzi1qzg1d.cplex.sol'.
CPLEX> NOTE: no warmstart specified for MIP iteration, default behavior is true
NOTE: resolving with all competitive generators using storage-only solution to warmstart
Solving...

Welcome to IBM(R) ILOG(R) CPLEX(R) Interactive Optimizer 12.9.0.0
  with Simplex, Mixed Integer & Barrier Optimizers
5725-A06 5725-A29 5724-Y48 5724-Y49 5724-Y54 5724-Y55 5655-Y21
Copyright IBM Corp. 1988, 2019.  All Rights Reserved.

Type 'help' for a list of available commands.
Type 'help' followed by a command name for more
information on commands.

CPLEX> Logfile 'cplex.log' closed.
Logfile 'C:\Users\llavin\Desktop\test85\logs\tmpm5d61wcv.cplex.log' open.
CPLEX> New value for parallel optimization mode: -1
CPLEX> New value for mixed integer optimality gap tolerance: 0.05
CPLEX> New value for deterministic time limit in ticks: 100000
CPLEX> Problem 'C:\Users\llavin\Desktop\test85\logs\tmpavzbo_y_.pyomo.lp' read.
Read time = 0.52 sec. (27.89 ticks)
CPLEX> MIP start file 'C:\Users\llavin\Desktop\test85\logs\tmpemba_8xp.cplex.mst' read.
CPLEX> Problem name         : C:\Users\llavin\Desktop\test85\logs\tmpavzbo_y_.pyomo.lp
Objective sense      : Maximize
Variables            :  109219  [Nneg: 1,  Box: 45494,  Free: 8928,
                                 Binary: 54796]
Objective nonzeros   :   18914
Linear constraints   :  246995  [Less: 82866,  Greater: 118424,  Equal: 45705]
  Nonzeros           :  580829
  RHS nonzeros       :  134591

Variables            : Min LB: -5000.000        Max UB: 1000000.       
Objective nonzeros   : Min   : 0.1944444        Max   : 2500.000       
Linear constraints   :
  Nonzeros           : Min   : 0.1944444        Max   : 1000000.       
  RHS nonzeros       : Min   : 0.1944444        Max   : 1000000.       
CPLEX> CPXPARAM_Parallel                                -1
CPXPARAM_DetTimeLimit                            100000
CPXPARAM_MIP_Tolerances_MIPGap                   0.050000000000000003
1 of 1 MIP starts provided solutions.
MIP start 'm1' defined initial solution with objective 0.0000.
Tried aggregator 3 times.
MIP Presolve eliminated 181785 rows and 42945 columns.
MIP Presolve added 6048 rows and 0 columns.
MIP Presolve modified 48938 coefficients.
Aggregator did 25862 substitutions.
Reduced MIP has 45396 rows, 38780 columns, and 125812 nonzeros.
Reduced MIP has 15262 binaries, 0 generals, 0 SOSs, and 0 indicators.
Presolve time = 0.58 sec. (334.26 ticks)
Probing fixed 818 vars, tightened 6886 bounds.
Probing time = 0.34 sec. (13.05 ticks)
Tried aggregator 2 times.
MIP Presolve eliminated 1828 rows and 1636 columns.
MIP Presolve modified 5511 coefficients.
Aggregator did 49 substitutions.
Reduced MIP has 43519 rows, 37095 columns, and 120374 nonzeros.
Reduced MIP has 14444 binaries, 0 generals, 0 SOSs, and 0 indicators.
Presolve time = 0.23 sec. (207.08 ticks)
Probing fixed 0 vars, tightened 158 bounds.
Probing time = 0.48 sec. (14.02 ticks)
Clique table members: 78369.
MIP emphasis: balance optimality and feasibility.
MIP search method: dynamic search.
Parallel mode: opportunistic, using up to 32 threads.
Root relaxation solution time = 0.86 sec. (1587.39 ticks)

        Nodes                                         Cuts/
   Node  Left     Objective  IInf  Best Integer    Best Bound    ItCnt     Gap

*     0+    0                            0.0000  9905391.6325              --- 
      0     0    13005.2177   446        0.0000    13005.2177     9012     --- 
*     0+    0                            0.0000    13005.2177              --- 
      0     0    12715.4593   477        0.0000     Cuts: 894     9611     --- 
      0     0    12715.4557   515        0.0000     Cuts: 145     9770     --- 
      0     0    12715.4050   538        0.0000      Cuts: 77     9898     --- 
      0     9    infeasible              0.0000     Cuts: 100    10184     --- 
Elapsed time = 9.31 sec. (5393.57 ticks, tree = 0.02 MB, solutions = 2)
    338    36    11331.7823   394        0.0000    11786.6080    11643     --- 
    848    83    11010.1591   357        0.0000    11786.6080    12132     --- 
   1122    55    10941.3910   360        0.0000    11786.6080    11597     --- 
   1459    61    10976.0616   377        0.0000    11786.6080    11753     --- 
   1841   516    10711.5757   350        0.0000    11786.6080    13820     --- 
   2103  1019     9221.3746   303        0.0000    11786.6080    15235     --- 
   2425   914     6957.7973   234        0.0000    11786.6080    14970     --- 
   2780  1220     7545.0191   254        0.0000    11786.6080    15841     --- 
   3126  1920     9896.8043   309        0.0000    11786.6080    18478     --- 
   4787  2663    10197.3163   309        0.0000    11786.6080    21587     --- 
Elapsed time = 30.88 sec. (8500.59 ticks, tree = 28.63 MB, solutions = 2)
   6057  3577      787.3985    46        0.0000    11786.6080    26002     --- 
   6488  4234     5651.7152   150        0.0000    11786.6080    28918     --- 
*  6489  3493      integral     0        0.0000        0.0000    48660    0.00%

Clique cuts applied:  2
Cover cuts applied:  3
Implied bound cuts applied:  134
Flow cuts applied:  555
Mixed integer rounding cuts applied:  272
Gomory fractional cuts applied:  118

Root node processing (before b&c):
  Real time             =    6.78 sec. (5372.16 ticks)
Parallel b&c, 32 threads:
  Real time             =   38.13 sec. (11262.09 ticks)
  Sync time (average)   =    2.75 sec.
  Wait time (average)   =    0.00 sec.
                          ------------
Total (root+branch&cut) =   44.91 sec. (16634.26 ticks)

Solution pool: 2 solutions saved.

MIP - Integer optimal solution:  Objective =  4.7760320558e-05
Solution time =   44.95 sec.  Iterations = 48660  Nodes = 6489
Deterministic time = 16634.57 ticks  (370.04 ticks/sec)

CPLEX> Incumbent solution written to file 'C:\Users\llavin\Desktop\test85\logs\tmplmisi9dq.cplex.sol'.
CPLEX> Exporting results... 
